(set-logic QF_LRA)
(declare-fun T1 () Real )
(declare-fun T2 () Real )
(declare-fun T3 () Real )
(declare-fun T4 () Real )
(declare-fun T5 () Real )
(declare-fun T6 () Real )
(declare-fun T7 () Real )
(declare-fun T8 () Real )
(declare-fun T9 () Real )
(declare-fun T10 () Real )
(declare-fun Z () Real )
(assert ( and 
(or ( <= ( + T1 20 ) T2 ) ( <= ( + T2 57 ) T1 ) )
(or ( <= ( + T1 85 )  ( + T2 57 ) ) ( <= ( + T2 58 )( + T1 20 ) ) )
(or ( <= ( + T1 125 )  ( + T2 58 ) ) ( <= ( + T2 156 )( + T1 85 ) ) )
(or ( <= ( + T1 172 )  ( + T2 156 ) ) ( <= ( + T2 203 )( + T1 125 ) ) )
(or ( <= ( + T1 215 )  ( + T2 203 ) ) ( <= ( + T2 272 )( + T1 172 ) ) )
(or ( <= ( + T1 303 )  ( + T2 272 ) ) ( <= ( + T2 363 )( + T1 215 ) ) )
(or ( <= ( + T1 326 )  ( + T2 363 ) ) ( <= ( + T2 382 )( + T1 303 ) ) )
(or ( <= ( + T1 388 )  ( + T2 382 ) ) ( <= ( + T2 480 )( + T1 326 ) ) )
(or ( <= ( + T1 415 )  ( + T2 480 ) ) ( <= ( + T2 502 )( + T1 388 ) ) )
(or ( <= ( + T1 427 )  ( + T2 502 ) ) ( <= ( + T2 565 )( + T1 415 ) ) )
(or ( <= ( + T1 492 )  ( + T2 565 ) ) ( <= ( + T2 643 )( + T1 427 ) ) )
(or ( <= ( + T1 548 )  ( + T2 643 ) ) ( <= ( + T2 660 )( + T1 492 ) ) )
(or ( <= ( + T1 20 ) T3 ) ( <= ( + T3 37 ) T1 ) )
(or ( <= ( + T1 85 )  ( + T3 37 ) ) ( <= ( + T3 93 )( + T1 20 ) ) )
(or ( <= ( + T1 125 )  ( + T3 93 ) ) ( <= ( + T3 132 )( + T1 85 ) ) )
(or ( <= ( + T1 172 )  ( + T3 132 ) ) ( <= ( + T3 147 )( + T1 125 ) ) )
(or ( <= ( + T1 215 )  ( + T3 147 ) ) ( <= ( + T3 228 )( + T1 172 ) ) )
(or ( <= ( + T1 303 )  ( + T3 228 ) ) ( <= ( + T3 248 )( + T1 215 ) ) )
(or ( <= ( + T1 326 )  ( + T3 248 ) ) ( <= ( + T3 275 )( + T1 303 ) ) )
(or ( <= ( + T1 388 )  ( + T3 275 ) ) ( <= ( + T3 375 )( + T1 326 ) ) )
(or ( <= ( + T1 415 )  ( + T3 375 ) ) ( <= ( + T3 412 )( + T1 388 ) ) )
(or ( <= ( + T1 427 )  ( + T3 412 ) ) ( <= ( + T3 430 )( + T1 415 ) ) )
(or ( <= ( + T1 492 )  ( + T3 430 ) ) ( <= ( + T3 528 )( + T1 427 ) ) )
(or ( <= ( + T1 548 )  ( + T3 528 ) ) ( <= ( + T3 607 )( + T1 492 ) ) )
(or ( <= ( + T1 20 ) T4 ) ( <= ( + T4 5 ) T1 ) )
(or ( <= ( + T1 85 )  ( + T4 5 ) ) ( <= ( + T4 77 )( + T1 20 ) ) )
(or ( <= ( + T1 125 )  ( + T4 77 ) ) ( <= ( + T4 169 )( + T1 85 ) ) )
(or ( <= ( + T1 172 )  ( + T4 169 ) ) ( <= ( + T4 201 )( + T1 125 ) ) )
(or ( <= ( + T1 215 )  ( + T4 201 ) ) ( <= ( + T4 284 )( + T1 172 ) ) )
(or ( <= ( + T1 303 )  ( + T4 284 ) ) ( <= ( + T4 340 )( + T1 215 ) ) )
(or ( <= ( + T1 326 )  ( + T4 340 ) ) ( <= ( + T4 379 )( + T1 303 ) ) )
(or ( <= ( + T1 388 )  ( + T4 379 ) ) ( <= ( + T4 470 )( + T1 326 ) ) )
(or ( <= ( + T1 415 )  ( + T4 470 ) ) ( <= ( + T4 478 )( + T1 388 ) ) )
(or ( <= ( + T1 427 )  ( + T4 478 ) ) ( <= ( + T4 566 )( + T1 415 ) ) )
(or ( <= ( + T1 492 )  ( + T4 566 ) ) ( <= ( + T4 603 )( + T1 427 ) ) )
(or ( <= ( + T1 548 )  ( + T4 603 ) ) ( <= ( + T4 679 )( + T1 492 ) ) )
(or ( <= ( + T1 20 ) T5 ) ( <= ( + T5 78 ) T1 ) )
(or ( <= ( + T1 85 )  ( + T5 78 ) ) ( <= ( + T5 85 )( + T1 20 ) ) )
(or ( <= ( + T1 125 )  ( + T5 85 ) ) ( <= ( + T5 110 )( + T1 85 ) ) )
(or ( <= ( + T1 172 )  ( + T5 110 ) ) ( <= ( + T5 162 )( + T1 125 ) ) )
(or ( <= ( + T1 215 )  ( + T5 162 ) ) ( <= ( + T5 231 )( + T1 172 ) ) )
(or ( <= ( + T1 303 )  ( + T5 231 ) ) ( <= ( + T5 233 )( + T1 215 ) ) )
(or ( <= ( + T1 326 )  ( + T5 233 ) ) ( <= ( + T5 253 )( + T1 303 ) ) )
(or ( <= ( + T1 388 )  ( + T5 253 ) ) ( <= ( + T5 311 )( + T1 326 ) ) )
(or ( <= ( + T1 415 )  ( + T5 311 ) ) ( <= ( + T5 321 )( + T1 388 ) ) )
(or ( <= ( + T1 427 )  ( + T5 321 ) ) ( <= ( + T5 331 )( + T1 415 ) ) )
(or ( <= ( + T1 492 )  ( + T5 331 ) ) ( <= ( + T5 355 )( + T1 427 ) ) )
(or ( <= ( + T1 548 )  ( + T5 355 ) ) ( <= ( + T5 445 )( + T1 492 ) ) )
(or ( <= ( + T1 20 ) T6 ) ( <= ( + T6 30 ) T1 ) )
(or ( <= ( + T1 85 )  ( + T6 30 ) ) ( <= ( + T6 80 )( + T1 20 ) ) )
(or ( <= ( + T1 125 )  ( + T6 80 ) ) ( <= ( + T6 122 )( + T1 85 ) ) )
(or ( <= ( + T1 172 )  ( + T6 122 ) ) ( <= ( + T6 188 )( + T1 125 ) ) )
(or ( <= ( + T1 215 )  ( + T6 188 ) ) ( <= ( + T6 208 )( + T1 172 ) ) )
(or ( <= ( + T1 303 )  ( + T6 208 ) ) ( <= ( + T6 247 )( + T1 215 ) ) )
(or ( <= ( + T1 326 )  ( + T6 247 ) ) ( <= ( + T6 343 )( + T1 303 ) ) )
(or ( <= ( + T1 388 )  ( + T6 343 ) ) ( <= ( + T6 367 )( + T1 326 ) ) )
(or ( <= ( + T1 415 )  ( + T6 367 ) ) ( <= ( + T6 378 )( + T1 388 ) ) )
(or ( <= ( + T1 427 )  ( + T6 378 ) ) ( <= ( + T6 465 )( + T1 415 ) ) )
(or ( <= ( + T1 492 )  ( + T6 465 ) ) ( <= ( + T6 472 )( + T1 427 ) ) )
(or ( <= ( + T1 548 )  ( + T6 472 ) ) ( <= ( + T6 517 )( + T1 492 ) ) )
(or ( <= ( + T1 20 ) T7 ) ( <= ( + T7 95 ) T1 ) )
(or ( <= ( + T1 85 )  ( + T7 95 ) ) ( <= ( + T7 192 )( + T1 20 ) ) )
(or ( <= ( + T1 125 )  ( + T7 192 ) ) ( <= ( + T7 280 )( + T1 85 ) ) )
(or ( <= ( + T1 172 )  ( + T7 280 ) ) ( <= ( + T7 282 )( + T1 125 ) ) )
(or ( <= ( + T1 215 )  ( + T7 282 ) ) ( <= ( + T7 367 )( + T1 172 ) ) )
(or ( <= ( + T1 303 )  ( + T7 367 ) ) ( <= ( + T7 443 )( + T1 215 ) ) )
(or ( <= ( + T1 326 )  ( + T7 443 ) ) ( <= ( + T7 473 )( + T1 303 ) ) )
(or ( <= ( + T1 388 )  ( + T7 473 ) ) ( <= ( + T7 535 )( + T1 326 ) ) )
(or ( <= ( + T1 415 )  ( + T7 535 ) ) ( <= ( + T7 618 )( + T1 388 ) ) )
(or ( <= ( + T1 427 )  ( + T7 618 ) ) ( <= ( + T7 672 )( + T1 415 ) ) )
(or ( <= ( + T1 492 )  ( + T7 672 ) ) ( <= ( + T7 737 )( + T1 427 ) ) )
(or ( <= ( + T1 548 )  ( + T7 737 ) ) ( <= ( + T7 740 )( + T1 492 ) ) )
(or ( <= ( + T1 20 ) T8 ) ( <= ( + T8 8 ) T1 ) )
(or ( <= ( + T1 85 )  ( + T8 8 ) ) ( <= ( + T8 92 )( + T1 20 ) ) )
(or ( <= ( + T1 125 )  ( + T8 92 ) ) ( <= ( + T8 152 )( + T1 85 ) ) )
(or ( <= ( + T1 172 )  ( + T8 152 ) ) ( <= ( + T8 169 )( + T1 125 ) ) )
(or ( <= ( + T1 215 )  ( + T8 169 ) ) ( <= ( + T8 263 )( + T1 172 ) ) )
(or ( <= ( + T1 303 )  ( + T8 263 ) ) ( <= ( + T8 347 )( + T1 215 ) ) )
(or ( <= ( + T1 326 )  ( + T8 347 ) ) ( <= ( + T8 405 )( + T1 303 ) ) )
(or ( <= ( + T1 388 )  ( + T8 405 ) ) ( <= ( + T8 480 )( + T1 326 ) ) )
(or ( <= ( + T1 415 )  ( + T8 480 ) ) ( <= ( + T8 565 )( + T1 388 ) ) )
(or ( <= ( + T1 427 )  ( + T8 565 ) ) ( <= ( + T8 664 )( + T1 415 ) ) )
(or ( <= ( + T1 492 )  ( + T8 664 ) ) ( <= ( + T8 704 )( + T1 427 ) ) )
(or ( <= ( + T1 548 )  ( + T8 704 ) ) ( <= ( + T8 708 )( + T1 492 ) ) )
(or ( <= ( + T1 20 ) T9 ) ( <= ( + T9 90 ) T1 ) )
(or ( <= ( + T1 85 )  ( + T9 90 ) ) ( <= ( + T9 125 )( + T1 20 ) ) )
(or ( <= ( + T1 125 )  ( + T9 125 ) ) ( <= ( + T9 205 )( + T1 85 ) ) )
(or ( <= ( + T1 172 )  ( + T9 205 ) ) ( <= ( + T9 257 )( + T1 125 ) ) )
(or ( <= ( + T1 215 )  ( + T9 257 ) ) ( <= ( + T9 330 )( + T1 172 ) ) )
(or ( <= ( + T1 303 )  ( + T9 330 ) ) ( <= ( + T9 416 )( + T1 215 ) ) )
(or ( <= ( + T1 326 )  ( + T9 416 ) ) ( <= ( + T9 464 )( + T1 303 ) ) )
(or ( <= ( + T1 388 )  ( + T9 464 ) ) ( <= ( + T9 531 )( + T1 326 ) ) )
(or ( <= ( + T1 415 )  ( + T9 531 ) ) ( <= ( + T9 614 )( + T1 388 ) ) )
(or ( <= ( + T1 427 )  ( + T9 614 ) ) ( <= ( + T9 649 )( + T1 415 ) ) )
(or ( <= ( + T1 492 )  ( + T9 649 ) ) ( <= ( + T9 718 )( + T1 427 ) ) )
(or ( <= ( + T1 548 )  ( + T9 718 ) ) ( <= ( + T9 737 )( + T1 492 ) ) )
(or ( <= ( + T1 20 ) T10 ) ( <= ( + T10 11 ) T1 ) )
(or ( <= ( + T1 85 )  ( + T10 11 ) ) ( <= ( + T10 109 )( + T1 20 ) ) )
(or ( <= ( + T1 125 )  ( + T10 109 ) ) ( <= ( + T10 189 )( + T1 85 ) ) )
(or ( <= ( + T1 172 )  ( + T10 189 ) ) ( <= ( + T10 234 )( + T1 125 ) ) )
(or ( <= ( + T1 215 )  ( + T10 234 ) ) ( <= ( + T10 285 )( + T1 172 ) ) )
(or ( <= ( + T1 303 )  ( + T10 285 ) ) ( <= ( + T10 382 )( + T1 215 ) ) )
(or ( <= ( + T1 326 )  ( + T10 382 ) ) ( <= ( + T10 429 )( + T1 303 ) ) )
(or ( <= ( + T1 388 )  ( + T10 429 ) ) ( <= ( + T10 439 )( + T1 326 ) ) )
(or ( <= ( + T1 415 )  ( + T10 439 ) ) ( <= ( + T10 471 )( + T1 388 ) ) )
(or ( <= ( + T1 427 )  ( + T10 471 ) ) ( <= ( + T10 530 )( + T1 415 ) ) )
(or ( <= ( + T1 492 )  ( + T10 530 ) ) ( <= ( + T10 556 )( + T1 427 ) ) )
(or ( <= ( + T1 548 )  ( + T10 556 ) ) ( <= ( + T10 633 )( + T1 492 ) ) )
(or ( <= ( + T2 57 ) T3 ) ( <= ( + T3 37 ) T2 ) )
(or ( <= ( + T2 58 )  ( + T3 37 ) ) ( <= ( + T3 93 )( + T2 57 ) ) )
(or ( <= ( + T2 156 )  ( + T3 93 ) ) ( <= ( + T3 132 )( + T2 58 ) ) )
(or ( <= ( + T2 203 )  ( + T3 132 ) ) ( <= ( + T3 147 )( + T2 156 ) ) )
(or ( <= ( + T2 272 )  ( + T3 147 ) ) ( <= ( + T3 228 )( + T2 203 ) ) )
(or ( <= ( + T2 363 )  ( + T3 228 ) ) ( <= ( + T3 248 )( + T2 272 ) ) )
(or ( <= ( + T2 382 )  ( + T3 248 ) ) ( <= ( + T3 275 )( + T2 363 ) ) )
(or ( <= ( + T2 480 )  ( + T3 275 ) ) ( <= ( + T3 375 )( + T2 382 ) ) )
(or ( <= ( + T2 502 )  ( + T3 375 ) ) ( <= ( + T3 412 )( + T2 480 ) ) )
(or ( <= ( + T2 565 )  ( + T3 412 ) ) ( <= ( + T3 430 )( + T2 502 ) ) )
(or ( <= ( + T2 643 )  ( + T3 430 ) ) ( <= ( + T3 528 )( + T2 565 ) ) )
(or ( <= ( + T2 660 )  ( + T3 528 ) ) ( <= ( + T3 607 )( + T2 643 ) ) )
(or ( <= ( + T2 57 ) T4 ) ( <= ( + T4 5 ) T2 ) )
(or ( <= ( + T2 58 )  ( + T4 5 ) ) ( <= ( + T4 77 )( + T2 57 ) ) )
(or ( <= ( + T2 156 )  ( + T4 77 ) ) ( <= ( + T4 169 )( + T2 58 ) ) )
(or ( <= ( + T2 203 )  ( + T4 169 ) ) ( <= ( + T4 201 )( + T2 156 ) ) )
(or ( <= ( + T2 272 )  ( + T4 201 ) ) ( <= ( + T4 284 )( + T2 203 ) ) )
(or ( <= ( + T2 363 )  ( + T4 284 ) ) ( <= ( + T4 340 )( + T2 272 ) ) )
(or ( <= ( + T2 382 )  ( + T4 340 ) ) ( <= ( + T4 379 )( + T2 363 ) ) )
(or ( <= ( + T2 480 )  ( + T4 379 ) ) ( <= ( + T4 470 )( + T2 382 ) ) )
(or ( <= ( + T2 502 )  ( + T4 470 ) ) ( <= ( + T4 478 )( + T2 480 ) ) )
(or ( <= ( + T2 565 )  ( + T4 478 ) ) ( <= ( + T4 566 )( + T2 502 ) ) )
(or ( <= ( + T2 643 )  ( + T4 566 ) ) ( <= ( + T4 603 )( + T2 565 ) ) )
(or ( <= ( + T2 660 )  ( + T4 603 ) ) ( <= ( + T4 679 )( + T2 643 ) ) )
(or ( <= ( + T2 57 ) T5 ) ( <= ( + T5 78 ) T2 ) )
(or ( <= ( + T2 58 )  ( + T5 78 ) ) ( <= ( + T5 85 )( + T2 57 ) ) )
(or ( <= ( + T2 156 )  ( + T5 85 ) ) ( <= ( + T5 110 )( + T2 58 ) ) )
(or ( <= ( + T2 203 )  ( + T5 110 ) ) ( <= ( + T5 162 )( + T2 156 ) ) )
(or ( <= ( + T2 272 )  ( + T5 162 ) ) ( <= ( + T5 231 )( + T2 203 ) ) )
(or ( <= ( + T2 363 )  ( + T5 231 ) ) ( <= ( + T5 233 )( + T2 272 ) ) )
(or ( <= ( + T2 382 )  ( + T5 233 ) ) ( <= ( + T5 253 )( + T2 363 ) ) )
(or ( <= ( + T2 480 )  ( + T5 253 ) ) ( <= ( + T5 311 )( + T2 382 ) ) )
(or ( <= ( + T2 502 )  ( + T5 311 ) ) ( <= ( + T5 321 )( + T2 480 ) ) )
(or ( <= ( + T2 565 )  ( + T5 321 ) ) ( <= ( + T5 331 )( + T2 502 ) ) )
(or ( <= ( + T2 643 )  ( + T5 331 ) ) ( <= ( + T5 355 )( + T2 565 ) ) )
(or ( <= ( + T2 660 )  ( + T5 355 ) ) ( <= ( + T5 445 )( + T2 643 ) ) )
(or ( <= ( + T2 57 ) T6 ) ( <= ( + T6 30 ) T2 ) )
(or ( <= ( + T2 58 )  ( + T6 30 ) ) ( <= ( + T6 80 )( + T2 57 ) ) )
(or ( <= ( + T2 156 )  ( + T6 80 ) ) ( <= ( + T6 122 )( + T2 58 ) ) )
(or ( <= ( + T2 203 )  ( + T6 122 ) ) ( <= ( + T6 188 )( + T2 156 ) ) )
(or ( <= ( + T2 272 )  ( + T6 188 ) ) ( <= ( + T6 208 )( + T2 203 ) ) )
(or ( <= ( + T2 363 )  ( + T6 208 ) ) ( <= ( + T6 247 )( + T2 272 ) ) )
(or ( <= ( + T2 382 )  ( + T6 247 ) ) ( <= ( + T6 343 )( + T2 363 ) ) )
(or ( <= ( + T2 480 )  ( + T6 343 ) ) ( <= ( + T6 367 )( + T2 382 ) ) )
(or ( <= ( + T2 502 )  ( + T6 367 ) ) ( <= ( + T6 378 )( + T2 480 ) ) )
(or ( <= ( + T2 565 )  ( + T6 378 ) ) ( <= ( + T6 465 )( + T2 502 ) ) )
(or ( <= ( + T2 643 )  ( + T6 465 ) ) ( <= ( + T6 472 )( + T2 565 ) ) )
(or ( <= ( + T2 660 )  ( + T6 472 ) ) ( <= ( + T6 517 )( + T2 643 ) ) )
(or ( <= ( + T2 57 ) T7 ) ( <= ( + T7 95 ) T2 ) )
(or ( <= ( + T2 58 )  ( + T7 95 ) ) ( <= ( + T7 192 )( + T2 57 ) ) )
(or ( <= ( + T2 156 )  ( + T7 192 ) ) ( <= ( + T7 280 )( + T2 58 ) ) )
(or ( <= ( + T2 203 )  ( + T7 280 ) ) ( <= ( + T7 282 )( + T2 156 ) ) )
(or ( <= ( + T2 272 )  ( + T7 282 ) ) ( <= ( + T7 367 )( + T2 203 ) ) )
(or ( <= ( + T2 363 )  ( + T7 367 ) ) ( <= ( + T7 443 )( + T2 272 ) ) )
(or ( <= ( + T2 382 )  ( + T7 443 ) ) ( <= ( + T7 473 )( + T2 363 ) ) )
(or ( <= ( + T2 480 )  ( + T7 473 ) ) ( <= ( + T7 535 )( + T2 382 ) ) )
(or ( <= ( + T2 502 )  ( + T7 535 ) ) ( <= ( + T7 618 )( + T2 480 ) ) )
(or ( <= ( + T2 565 )  ( + T7 618 ) ) ( <= ( + T7 672 )( + T2 502 ) ) )
(or ( <= ( + T2 643 )  ( + T7 672 ) ) ( <= ( + T7 737 )( + T2 565 ) ) )
(or ( <= ( + T2 660 )  ( + T7 737 ) ) ( <= ( + T7 740 )( + T2 643 ) ) )
(or ( <= ( + T2 57 ) T8 ) ( <= ( + T8 8 ) T2 ) )
(or ( <= ( + T2 58 )  ( + T8 8 ) ) ( <= ( + T8 92 )( + T2 57 ) ) )
(or ( <= ( + T2 156 )  ( + T8 92 ) ) ( <= ( + T8 152 )( + T2 58 ) ) )
(or ( <= ( + T2 203 )  ( + T8 152 ) ) ( <= ( + T8 169 )( + T2 156 ) ) )
(or ( <= ( + T2 272 )  ( + T8 169 ) ) ( <= ( + T8 263 )( + T2 203 ) ) )
(or ( <= ( + T2 363 )  ( + T8 263 ) ) ( <= ( + T8 347 )( + T2 272 ) ) )
(or ( <= ( + T2 382 )  ( + T8 347 ) ) ( <= ( + T8 405 )( + T2 363 ) ) )
(or ( <= ( + T2 480 )  ( + T8 405 ) ) ( <= ( + T8 480 )( + T2 382 ) ) )
(or ( <= ( + T2 502 )  ( + T8 480 ) ) ( <= ( + T8 565 )( + T2 480 ) ) )
(or ( <= ( + T2 565 )  ( + T8 565 ) ) ( <= ( + T8 664 )( + T2 502 ) ) )
(or ( <= ( + T2 643 )  ( + T8 664 ) ) ( <= ( + T8 704 )( + T2 565 ) ) )
(or ( <= ( + T2 660 )  ( + T8 704 ) ) ( <= ( + T8 708 )( + T2 643 ) ) )
(or ( <= ( + T2 57 ) T9 ) ( <= ( + T9 90 ) T2 ) )
(or ( <= ( + T2 58 )  ( + T9 90 ) ) ( <= ( + T9 125 )( + T2 57 ) ) )
(or ( <= ( + T2 156 )  ( + T9 125 ) ) ( <= ( + T9 205 )( + T2 58 ) ) )
(or ( <= ( + T2 203 )  ( + T9 205 ) ) ( <= ( + T9 257 )( + T2 156 ) ) )
(or ( <= ( + T2 272 )  ( + T9 257 ) ) ( <= ( + T9 330 )( + T2 203 ) ) )
(or ( <= ( + T2 363 )  ( + T9 330 ) ) ( <= ( + T9 416 )( + T2 272 ) ) )
(or ( <= ( + T2 382 )  ( + T9 416 ) ) ( <= ( + T9 464 )( + T2 363 ) ) )
(or ( <= ( + T2 480 )  ( + T9 464 ) ) ( <= ( + T9 531 )( + T2 382 ) ) )
(or ( <= ( + T2 502 )  ( + T9 531 ) ) ( <= ( + T9 614 )( + T2 480 ) ) )
(or ( <= ( + T2 565 )  ( + T9 614 ) ) ( <= ( + T9 649 )( + T2 502 ) ) )
(or ( <= ( + T2 643 )  ( + T9 649 ) ) ( <= ( + T9 718 )( + T2 565 ) ) )
(or ( <= ( + T2 660 )  ( + T9 718 ) ) ( <= ( + T9 737 )( + T2 643 ) ) )
(or ( <= ( + T2 57 ) T10 ) ( <= ( + T10 11 ) T2 ) )
(or ( <= ( + T2 58 )  ( + T10 11 ) ) ( <= ( + T10 109 )( + T2 57 ) ) )
(or ( <= ( + T2 156 )  ( + T10 109 ) ) ( <= ( + T10 189 )( + T2 58 ) ) )
(or ( <= ( + T2 203 )  ( + T10 189 ) ) ( <= ( + T10 234 )( + T2 156 ) ) )
(or ( <= ( + T2 272 )  ( + T10 234 ) ) ( <= ( + T10 285 )( + T2 203 ) ) )
(or ( <= ( + T2 363 )  ( + T10 285 ) ) ( <= ( + T10 382 )( + T2 272 ) ) )
(or ( <= ( + T2 382 )  ( + T10 382 ) ) ( <= ( + T10 429 )( + T2 363 ) ) )
(or ( <= ( + T2 480 )  ( + T10 429 ) ) ( <= ( + T10 439 )( + T2 382 ) ) )
(or ( <= ( + T2 502 )  ( + T10 439 ) ) ( <= ( + T10 471 )( + T2 480 ) ) )
(or ( <= ( + T2 565 )  ( + T10 471 ) ) ( <= ( + T10 530 )( + T2 502 ) ) )
(or ( <= ( + T2 643 )  ( + T10 530 ) ) ( <= ( + T10 556 )( + T2 565 ) ) )
(or ( <= ( + T2 660 )  ( + T10 556 ) ) ( <= ( + T10 633 )( + T2 643 ) ) )
(or ( <= ( + T3 37 ) T4 ) ( <= ( + T4 5 ) T3 ) )
(or ( <= ( + T3 93 )  ( + T4 5 ) ) ( <= ( + T4 77 )( + T3 37 ) ) )
(or ( <= ( + T3 132 )  ( + T4 77 ) ) ( <= ( + T4 169 )( + T3 93 ) ) )
(or ( <= ( + T3 147 )  ( + T4 169 ) ) ( <= ( + T4 201 )( + T3 132 ) ) )
(or ( <= ( + T3 228 )  ( + T4 201 ) ) ( <= ( + T4 284 )( + T3 147 ) ) )
(or ( <= ( + T3 248 )  ( + T4 284 ) ) ( <= ( + T4 340 )( + T3 228 ) ) )
(or ( <= ( + T3 275 )  ( + T4 340 ) ) ( <= ( + T4 379 )( + T3 248 ) ) )
(or ( <= ( + T3 375 )  ( + T4 379 ) ) ( <= ( + T4 470 )( + T3 275 ) ) )
(or ( <= ( + T3 412 )  ( + T4 470 ) ) ( <= ( + T4 478 )( + T3 375 ) ) )
(or ( <= ( + T3 430 )  ( + T4 478 ) ) ( <= ( + T4 566 )( + T3 412 ) ) )
(or ( <= ( + T3 528 )  ( + T4 566 ) ) ( <= ( + T4 603 )( + T3 430 ) ) )
(or ( <= ( + T3 607 )  ( + T4 603 ) ) ( <= ( + T4 679 )( + T3 528 ) ) )
(or ( <= ( + T3 37 ) T5 ) ( <= ( + T5 78 ) T3 ) )
(or ( <= ( + T3 93 )  ( + T5 78 ) ) ( <= ( + T5 85 )( + T3 37 ) ) )
(or ( <= ( + T3 132 )  ( + T5 85 ) ) ( <= ( + T5 110 )( + T3 93 ) ) )
(or ( <= ( + T3 147 )  ( + T5 110 ) ) ( <= ( + T5 162 )( + T3 132 ) ) )
(or ( <= ( + T3 228 )  ( + T5 162 ) ) ( <= ( + T5 231 )( + T3 147 ) ) )
(or ( <= ( + T3 248 )  ( + T5 231 ) ) ( <= ( + T5 233 )( + T3 228 ) ) )
(or ( <= ( + T3 275 )  ( + T5 233 ) ) ( <= ( + T5 253 )( + T3 248 ) ) )
(or ( <= ( + T3 375 )  ( + T5 253 ) ) ( <= ( + T5 311 )( + T3 275 ) ) )
(or ( <= ( + T3 412 )  ( + T5 311 ) ) ( <= ( + T5 321 )( + T3 375 ) ) )
(or ( <= ( + T3 430 )  ( + T5 321 ) ) ( <= ( + T5 331 )( + T3 412 ) ) )
(or ( <= ( + T3 528 )  ( + T5 331 ) ) ( <= ( + T5 355 )( + T3 430 ) ) )
(or ( <= ( + T3 607 )  ( + T5 355 ) ) ( <= ( + T5 445 )( + T3 528 ) ) )
(or ( <= ( + T3 37 ) T6 ) ( <= ( + T6 30 ) T3 ) )
(or ( <= ( + T3 93 )  ( + T6 30 ) ) ( <= ( + T6 80 )( + T3 37 ) ) )
(or ( <= ( + T3 132 )  ( + T6 80 ) ) ( <= ( + T6 122 )( + T3 93 ) ) )
(or ( <= ( + T3 147 )  ( + T6 122 ) ) ( <= ( + T6 188 )( + T3 132 ) ) )
(or ( <= ( + T3 228 )  ( + T6 188 ) ) ( <= ( + T6 208 )( + T3 147 ) ) )
(or ( <= ( + T3 248 )  ( + T6 208 ) ) ( <= ( + T6 247 )( + T3 228 ) ) )
(or ( <= ( + T3 275 )  ( + T6 247 ) ) ( <= ( + T6 343 )( + T3 248 ) ) )
(or ( <= ( + T3 375 )  ( + T6 343 ) ) ( <= ( + T6 367 )( + T3 275 ) ) )
(or ( <= ( + T3 412 )  ( + T6 367 ) ) ( <= ( + T6 378 )( + T3 375 ) ) )
(or ( <= ( + T3 430 )  ( + T6 378 ) ) ( <= ( + T6 465 )( + T3 412 ) ) )
(or ( <= ( + T3 528 )  ( + T6 465 ) ) ( <= ( + T6 472 )( + T3 430 ) ) )
(or ( <= ( + T3 607 )  ( + T6 472 ) ) ( <= ( + T6 517 )( + T3 528 ) ) )
(or ( <= ( + T3 37 ) T7 ) ( <= ( + T7 95 ) T3 ) )
(or ( <= ( + T3 93 )  ( + T7 95 ) ) ( <= ( + T7 192 )( + T3 37 ) ) )
(or ( <= ( + T3 132 )  ( + T7 192 ) ) ( <= ( + T7 280 )( + T3 93 ) ) )
(or ( <= ( + T3 147 )  ( + T7 280 ) ) ( <= ( + T7 282 )( + T3 132 ) ) )
(or ( <= ( + T3 228 )  ( + T7 282 ) ) ( <= ( + T7 367 )( + T3 147 ) ) )
(or ( <= ( + T3 248 )  ( + T7 367 ) ) ( <= ( + T7 443 )( + T3 228 ) ) )
(or ( <= ( + T3 275 )  ( + T7 443 ) ) ( <= ( + T7 473 )( + T3 248 ) ) )
(or ( <= ( + T3 375 )  ( + T7 473 ) ) ( <= ( + T7 535 )( + T3 275 ) ) )
(or ( <= ( + T3 412 )  ( + T7 535 ) ) ( <= ( + T7 618 )( + T3 375 ) ) )
(or ( <= ( + T3 430 )  ( + T7 618 ) ) ( <= ( + T7 672 )( + T3 412 ) ) )
(or ( <= ( + T3 528 )  ( + T7 672 ) ) ( <= ( + T7 737 )( + T3 430 ) ) )
(or ( <= ( + T3 607 )  ( + T7 737 ) ) ( <= ( + T7 740 )( + T3 528 ) ) )
(or ( <= ( + T3 37 ) T8 ) ( <= ( + T8 8 ) T3 ) )
(or ( <= ( + T3 93 )  ( + T8 8 ) ) ( <= ( + T8 92 )( + T3 37 ) ) )
(or ( <= ( + T3 132 )  ( + T8 92 ) ) ( <= ( + T8 152 )( + T3 93 ) ) )
(or ( <= ( + T3 147 )  ( + T8 152 ) ) ( <= ( + T8 169 )( + T3 132 ) ) )
(or ( <= ( + T3 228 )  ( + T8 169 ) ) ( <= ( + T8 263 )( + T3 147 ) ) )
(or ( <= ( + T3 248 )  ( + T8 263 ) ) ( <= ( + T8 347 )( + T3 228 ) ) )
(or ( <= ( + T3 275 )  ( + T8 347 ) ) ( <= ( + T8 405 )( + T3 248 ) ) )
(or ( <= ( + T3 375 )  ( + T8 405 ) ) ( <= ( + T8 480 )( + T3 275 ) ) )
(or ( <= ( + T3 412 )  ( + T8 480 ) ) ( <= ( + T8 565 )( + T3 375 ) ) )
(or ( <= ( + T3 430 )  ( + T8 565 ) ) ( <= ( + T8 664 )( + T3 412 ) ) )
(or ( <= ( + T3 528 )  ( + T8 664 ) ) ( <= ( + T8 704 )( + T3 430 ) ) )
(or ( <= ( + T3 607 )  ( + T8 704 ) ) ( <= ( + T8 708 )( + T3 528 ) ) )
(or ( <= ( + T3 37 ) T9 ) ( <= ( + T9 90 ) T3 ) )
(or ( <= ( + T3 93 )  ( + T9 90 ) ) ( <= ( + T9 125 )( + T3 37 ) ) )
(or ( <= ( + T3 132 )  ( + T9 125 ) ) ( <= ( + T9 205 )( + T3 93 ) ) )
(or ( <= ( + T3 147 )  ( + T9 205 ) ) ( <= ( + T9 257 )( + T3 132 ) ) )
(or ( <= ( + T3 228 )  ( + T9 257 ) ) ( <= ( + T9 330 )( + T3 147 ) ) )
(or ( <= ( + T3 248 )  ( + T9 330 ) ) ( <= ( + T9 416 )( + T3 228 ) ) )
(or ( <= ( + T3 275 )  ( + T9 416 ) ) ( <= ( + T9 464 )( + T3 248 ) ) )
(or ( <= ( + T3 375 )  ( + T9 464 ) ) ( <= ( + T9 531 )( + T3 275 ) ) )
(or ( <= ( + T3 412 )  ( + T9 531 ) ) ( <= ( + T9 614 )( + T3 375 ) ) )
(or ( <= ( + T3 430 )  ( + T9 614 ) ) ( <= ( + T9 649 )( + T3 412 ) ) )
(or ( <= ( + T3 528 )  ( + T9 649 ) ) ( <= ( + T9 718 )( + T3 430 ) ) )
(or ( <= ( + T3 607 )  ( + T9 718 ) ) ( <= ( + T9 737 )( + T3 528 ) ) )
(or ( <= ( + T3 37 ) T10 ) ( <= ( + T10 11 ) T3 ) )
(or ( <= ( + T3 93 )  ( + T10 11 ) ) ( <= ( + T10 109 )( + T3 37 ) ) )
(or ( <= ( + T3 132 )  ( + T10 109 ) ) ( <= ( + T10 189 )( + T3 93 ) ) )
(or ( <= ( + T3 147 )  ( + T10 189 ) ) ( <= ( + T10 234 )( + T3 132 ) ) )
(or ( <= ( + T3 228 )  ( + T10 234 ) ) ( <= ( + T10 285 )( + T3 147 ) ) )
(or ( <= ( + T3 248 )  ( + T10 285 ) ) ( <= ( + T10 382 )( + T3 228 ) ) )
(or ( <= ( + T3 275 )  ( + T10 382 ) ) ( <= ( + T10 429 )( + T3 248 ) ) )
(or ( <= ( + T3 375 )  ( + T10 429 ) ) ( <= ( + T10 439 )( + T3 275 ) ) )
(or ( <= ( + T3 412 )  ( + T10 439 ) ) ( <= ( + T10 471 )( + T3 375 ) ) )
(or ( <= ( + T3 430 )  ( + T10 471 ) ) ( <= ( + T10 530 )( + T3 412 ) ) )
(or ( <= ( + T3 528 )  ( + T10 530 ) ) ( <= ( + T10 556 )( + T3 430 ) ) )
(or ( <= ( + T3 607 )  ( + T10 556 ) ) ( <= ( + T10 633 )( + T3 528 ) ) )
(or ( <= ( + T4 5 ) T5 ) ( <= ( + T5 78 ) T4 ) )
(or ( <= ( + T4 77 )  ( + T5 78 ) ) ( <= ( + T5 85 )( + T4 5 ) ) )
(or ( <= ( + T4 169 )  ( + T5 85 ) ) ( <= ( + T5 110 )( + T4 77 ) ) )
(or ( <= ( + T4 201 )  ( + T5 110 ) ) ( <= ( + T5 162 )( + T4 169 ) ) )
(or ( <= ( + T4 284 )  ( + T5 162 ) ) ( <= ( + T5 231 )( + T4 201 ) ) )
(or ( <= ( + T4 340 )  ( + T5 231 ) ) ( <= ( + T5 233 )( + T4 284 ) ) )
(or ( <= ( + T4 379 )  ( + T5 233 ) ) ( <= ( + T5 253 )( + T4 340 ) ) )
(or ( <= ( + T4 470 )  ( + T5 253 ) ) ( <= ( + T5 311 )( + T4 379 ) ) )
(or ( <= ( + T4 478 )  ( + T5 311 ) ) ( <= ( + T5 321 )( + T4 470 ) ) )
(or ( <= ( + T4 566 )  ( + T5 321 ) ) ( <= ( + T5 331 )( + T4 478 ) ) )
(or ( <= ( + T4 603 )  ( + T5 331 ) ) ( <= ( + T5 355 )( + T4 566 ) ) )
(or ( <= ( + T4 679 )  ( + T5 355 ) ) ( <= ( + T5 445 )( + T4 603 ) ) )
(or ( <= ( + T4 5 ) T6 ) ( <= ( + T6 30 ) T4 ) )
(or ( <= ( + T4 77 )  ( + T6 30 ) ) ( <= ( + T6 80 )( + T4 5 ) ) )
(or ( <= ( + T4 169 )  ( + T6 80 ) ) ( <= ( + T6 122 )( + T4 77 ) ) )
(or ( <= ( + T4 201 )  ( + T6 122 ) ) ( <= ( + T6 188 )( + T4 169 ) ) )
(or ( <= ( + T4 284 )  ( + T6 188 ) ) ( <= ( + T6 208 )( + T4 201 ) ) )
(or ( <= ( + T4 340 )  ( + T6 208 ) ) ( <= ( + T6 247 )( + T4 284 ) ) )
(or ( <= ( + T4 379 )  ( + T6 247 ) ) ( <= ( + T6 343 )( + T4 340 ) ) )
(or ( <= ( + T4 470 )  ( + T6 343 ) ) ( <= ( + T6 367 )( + T4 379 ) ) )
(or ( <= ( + T4 478 )  ( + T6 367 ) ) ( <= ( + T6 378 )( + T4 470 ) ) )
(or ( <= ( + T4 566 )  ( + T6 378 ) ) ( <= ( + T6 465 )( + T4 478 ) ) )
(or ( <= ( + T4 603 )  ( + T6 465 ) ) ( <= ( + T6 472 )( + T4 566 ) ) )
(or ( <= ( + T4 679 )  ( + T6 472 ) ) ( <= ( + T6 517 )( + T4 603 ) ) )
(or ( <= ( + T4 5 ) T7 ) ( <= ( + T7 95 ) T4 ) )
(or ( <= ( + T4 77 )  ( + T7 95 ) ) ( <= ( + T7 192 )( + T4 5 ) ) )
(or ( <= ( + T4 169 )  ( + T7 192 ) ) ( <= ( + T7 280 )( + T4 77 ) ) )
(or ( <= ( + T4 201 )  ( + T7 280 ) ) ( <= ( + T7 282 )( + T4 169 ) ) )
(or ( <= ( + T4 284 )  ( + T7 282 ) ) ( <= ( + T7 367 )( + T4 201 ) ) )
(or ( <= ( + T4 340 )  ( + T7 367 ) ) ( <= ( + T7 443 )( + T4 284 ) ) )
(or ( <= ( + T4 379 )  ( + T7 443 ) ) ( <= ( + T7 473 )( + T4 340 ) ) )
(or ( <= ( + T4 470 )  ( + T7 473 ) ) ( <= ( + T7 535 )( + T4 379 ) ) )
(or ( <= ( + T4 478 )  ( + T7 535 ) ) ( <= ( + T7 618 )( + T4 470 ) ) )
(or ( <= ( + T4 566 )  ( + T7 618 ) ) ( <= ( + T7 672 )( + T4 478 ) ) )
(or ( <= ( + T4 603 )  ( + T7 672 ) ) ( <= ( + T7 737 )( + T4 566 ) ) )
(or ( <= ( + T4 679 )  ( + T7 737 ) ) ( <= ( + T7 740 )( + T4 603 ) ) )
(or ( <= ( + T4 5 ) T8 ) ( <= ( + T8 8 ) T4 ) )
(or ( <= ( + T4 77 )  ( + T8 8 ) ) ( <= ( + T8 92 )( + T4 5 ) ) )
(or ( <= ( + T4 169 )  ( + T8 92 ) ) ( <= ( + T8 152 )( + T4 77 ) ) )
(or ( <= ( + T4 201 )  ( + T8 152 ) ) ( <= ( + T8 169 )( + T4 169 ) ) )
(or ( <= ( + T4 284 )  ( + T8 169 ) ) ( <= ( + T8 263 )( + T4 201 ) ) )
(or ( <= ( + T4 340 )  ( + T8 263 ) ) ( <= ( + T8 347 )( + T4 284 ) ) )
(or ( <= ( + T4 379 )  ( + T8 347 ) ) ( <= ( + T8 405 )( + T4 340 ) ) )
(or ( <= ( + T4 470 )  ( + T8 405 ) ) ( <= ( + T8 480 )( + T4 379 ) ) )
(or ( <= ( + T4 478 )  ( + T8 480 ) ) ( <= ( + T8 565 )( + T4 470 ) ) )
(or ( <= ( + T4 566 )  ( + T8 565 ) ) ( <= ( + T8 664 )( + T4 478 ) ) )
(or ( <= ( + T4 603 )  ( + T8 664 ) ) ( <= ( + T8 704 )( + T4 566 ) ) )
(or ( <= ( + T4 679 )  ( + T8 704 ) ) ( <= ( + T8 708 )( + T4 603 ) ) )
(or ( <= ( + T4 5 ) T9 ) ( <= ( + T9 90 ) T4 ) )
(or ( <= ( + T4 77 )  ( + T9 90 ) ) ( <= ( + T9 125 )( + T4 5 ) ) )
(or ( <= ( + T4 169 )  ( + T9 125 ) ) ( <= ( + T9 205 )( + T4 77 ) ) )
(or ( <= ( + T4 201 )  ( + T9 205 ) ) ( <= ( + T9 257 )( + T4 169 ) ) )
(or ( <= ( + T4 284 )  ( + T9 257 ) ) ( <= ( + T9 330 )( + T4 201 ) ) )
(or ( <= ( + T4 340 )  ( + T9 330 ) ) ( <= ( + T9 416 )( + T4 284 ) ) )
(or ( <= ( + T4 379 )  ( + T9 416 ) ) ( <= ( + T9 464 )( + T4 340 ) ) )
(or ( <= ( + T4 470 )  ( + T9 464 ) ) ( <= ( + T9 531 )( + T4 379 ) ) )
(or ( <= ( + T4 478 )  ( + T9 531 ) ) ( <= ( + T9 614 )( + T4 470 ) ) )
(or ( <= ( + T4 566 )  ( + T9 614 ) ) ( <= ( + T9 649 )( + T4 478 ) ) )
(or ( <= ( + T4 603 )  ( + T9 649 ) ) ( <= ( + T9 718 )( + T4 566 ) ) )
(or ( <= ( + T4 679 )  ( + T9 718 ) ) ( <= ( + T9 737 )( + T4 603 ) ) )
(or ( <= ( + T4 5 ) T10 ) ( <= ( + T10 11 ) T4 ) )
(or ( <= ( + T4 77 )  ( + T10 11 ) ) ( <= ( + T10 109 )( + T4 5 ) ) )
(or ( <= ( + T4 169 )  ( + T10 109 ) ) ( <= ( + T10 189 )( + T4 77 ) ) )
(or ( <= ( + T4 201 )  ( + T10 189 ) ) ( <= ( + T10 234 )( + T4 169 ) ) )
(or ( <= ( + T4 284 )  ( + T10 234 ) ) ( <= ( + T10 285 )( + T4 201 ) ) )
(or ( <= ( + T4 340 )  ( + T10 285 ) ) ( <= ( + T10 382 )( + T4 284 ) ) )
(or ( <= ( + T4 379 )  ( + T10 382 ) ) ( <= ( + T10 429 )( + T4 340 ) ) )
(or ( <= ( + T4 470 )  ( + T10 429 ) ) ( <= ( + T10 439 )( + T4 379 ) ) )
(or ( <= ( + T4 478 )  ( + T10 439 ) ) ( <= ( + T10 471 )( + T4 470 ) ) )
(or ( <= ( + T4 566 )  ( + T10 471 ) ) ( <= ( + T10 530 )( + T4 478 ) ) )
(or ( <= ( + T4 603 )  ( + T10 530 ) ) ( <= ( + T10 556 )( + T4 566 ) ) )
(or ( <= ( + T4 679 )  ( + T10 556 ) ) ( <= ( + T10 633 )( + T4 603 ) ) )
(or ( <= ( + T5 78 ) T6 ) ( <= ( + T6 30 ) T5 ) )
(or ( <= ( + T5 85 )  ( + T6 30 ) ) ( <= ( + T6 80 )( + T5 78 ) ) )
(or ( <= ( + T5 110 )  ( + T6 80 ) ) ( <= ( + T6 122 )( + T5 85 ) ) )
(or ( <= ( + T5 162 )  ( + T6 122 ) ) ( <= ( + T6 188 )( + T5 110 ) ) )
(or ( <= ( + T5 231 )  ( + T6 188 ) ) ( <= ( + T6 208 )( + T5 162 ) ) )
(or ( <= ( + T5 233 )  ( + T6 208 ) ) ( <= ( + T6 247 )( + T5 231 ) ) )
(or ( <= ( + T5 253 )  ( + T6 247 ) ) ( <= ( + T6 343 )( + T5 233 ) ) )
(or ( <= ( + T5 311 )  ( + T6 343 ) ) ( <= ( + T6 367 )( + T5 253 ) ) )
(or ( <= ( + T5 321 )  ( + T6 367 ) ) ( <= ( + T6 378 )( + T5 311 ) ) )
(or ( <= ( + T5 331 )  ( + T6 378 ) ) ( <= ( + T6 465 )( + T5 321 ) ) )
(or ( <= ( + T5 355 )  ( + T6 465 ) ) ( <= ( + T6 472 )( + T5 331 ) ) )
(or ( <= ( + T5 445 )  ( + T6 472 ) ) ( <= ( + T6 517 )( + T5 355 ) ) )
(or ( <= ( + T5 78 ) T7 ) ( <= ( + T7 95 ) T5 ) )
(or ( <= ( + T5 85 )  ( + T7 95 ) ) ( <= ( + T7 192 )( + T5 78 ) ) )
(or ( <= ( + T5 110 )  ( + T7 192 ) ) ( <= ( + T7 280 )( + T5 85 ) ) )
(or ( <= ( + T5 162 )  ( + T7 280 ) ) ( <= ( + T7 282 )( + T5 110 ) ) )
(or ( <= ( + T5 231 )  ( + T7 282 ) ) ( <= ( + T7 367 )( + T5 162 ) ) )
(or ( <= ( + T5 233 )  ( + T7 367 ) ) ( <= ( + T7 443 )( + T5 231 ) ) )
(or ( <= ( + T5 253 )  ( + T7 443 ) ) ( <= ( + T7 473 )( + T5 233 ) ) )
(or ( <= ( + T5 311 )  ( + T7 473 ) ) ( <= ( + T7 535 )( + T5 253 ) ) )
(or ( <= ( + T5 321 )  ( + T7 535 ) ) ( <= ( + T7 618 )( + T5 311 ) ) )
(or ( <= ( + T5 331 )  ( + T7 618 ) ) ( <= ( + T7 672 )( + T5 321 ) ) )
(or ( <= ( + T5 355 )  ( + T7 672 ) ) ( <= ( + T7 737 )( + T5 331 ) ) )
(or ( <= ( + T5 445 )  ( + T7 737 ) ) ( <= ( + T7 740 )( + T5 355 ) ) )
(or ( <= ( + T5 78 ) T8 ) ( <= ( + T8 8 ) T5 ) )
(or ( <= ( + T5 85 )  ( + T8 8 ) ) ( <= ( + T8 92 )( + T5 78 ) ) )
(or ( <= ( + T5 110 )  ( + T8 92 ) ) ( <= ( + T8 152 )( + T5 85 ) ) )
(or ( <= ( + T5 162 )  ( + T8 152 ) ) ( <= ( + T8 169 )( + T5 110 ) ) )
(or ( <= ( + T5 231 )  ( + T8 169 ) ) ( <= ( + T8 263 )( + T5 162 ) ) )
(or ( <= ( + T5 233 )  ( + T8 263 ) ) ( <= ( + T8 347 )( + T5 231 ) ) )
(or ( <= ( + T5 253 )  ( + T8 347 ) ) ( <= ( + T8 405 )( + T5 233 ) ) )
(or ( <= ( + T5 311 )  ( + T8 405 ) ) ( <= ( + T8 480 )( + T5 253 ) ) )
(or ( <= ( + T5 321 )  ( + T8 480 ) ) ( <= ( + T8 565 )( + T5 311 ) ) )
(or ( <= ( + T5 331 )  ( + T8 565 ) ) ( <= ( + T8 664 )( + T5 321 ) ) )
(or ( <= ( + T5 355 )  ( + T8 664 ) ) ( <= ( + T8 704 )( + T5 331 ) ) )
(or ( <= ( + T5 445 )  ( + T8 704 ) ) ( <= ( + T8 708 )( + T5 355 ) ) )
(or ( <= ( + T5 78 ) T9 ) ( <= ( + T9 90 ) T5 ) )
(or ( <= ( + T5 85 )  ( + T9 90 ) ) ( <= ( + T9 125 )( + T5 78 ) ) )
(or ( <= ( + T5 110 )  ( + T9 125 ) ) ( <= ( + T9 205 )( + T5 85 ) ) )
(or ( <= ( + T5 162 )  ( + T9 205 ) ) ( <= ( + T9 257 )( + T5 110 ) ) )
(or ( <= ( + T5 231 )  ( + T9 257 ) ) ( <= ( + T9 330 )( + T5 162 ) ) )
(or ( <= ( + T5 233 )  ( + T9 330 ) ) ( <= ( + T9 416 )( + T5 231 ) ) )
(or ( <= ( + T5 253 )  ( + T9 416 ) ) ( <= ( + T9 464 )( + T5 233 ) ) )
(or ( <= ( + T5 311 )  ( + T9 464 ) ) ( <= ( + T9 531 )( + T5 253 ) ) )
(or ( <= ( + T5 321 )  ( + T9 531 ) ) ( <= ( + T9 614 )( + T5 311 ) ) )
(or ( <= ( + T5 331 )  ( + T9 614 ) ) ( <= ( + T9 649 )( + T5 321 ) ) )
(or ( <= ( + T5 355 )  ( + T9 649 ) ) ( <= ( + T9 718 )( + T5 331 ) ) )
(or ( <= ( + T5 445 )  ( + T9 718 ) ) ( <= ( + T9 737 )( + T5 355 ) ) )
(or ( <= ( + T5 78 ) T10 ) ( <= ( + T10 11 ) T5 ) )
(or ( <= ( + T5 85 )  ( + T10 11 ) ) ( <= ( + T10 109 )( + T5 78 ) ) )
(or ( <= ( + T5 110 )  ( + T10 109 ) ) ( <= ( + T10 189 )( + T5 85 ) ) )
(or ( <= ( + T5 162 )  ( + T10 189 ) ) ( <= ( + T10 234 )( + T5 110 ) ) )
(or ( <= ( + T5 231 )  ( + T10 234 ) ) ( <= ( + T10 285 )( + T5 162 ) ) )
(or ( <= ( + T5 233 )  ( + T10 285 ) ) ( <= ( + T10 382 )( + T5 231 ) ) )
(or ( <= ( + T5 253 )  ( + T10 382 ) ) ( <= ( + T10 429 )( + T5 233 ) ) )
(or ( <= ( + T5 311 )  ( + T10 429 ) ) ( <= ( + T10 439 )( + T5 253 ) ) )
(or ( <= ( + T5 321 )  ( + T10 439 ) ) ( <= ( + T10 471 )( + T5 311 ) ) )
(or ( <= ( + T5 331 )  ( + T10 471 ) ) ( <= ( + T10 530 )( + T5 321 ) ) )
(or ( <= ( + T5 355 )  ( + T10 530 ) ) ( <= ( + T10 556 )( + T5 331 ) ) )
(or ( <= ( + T5 445 )  ( + T10 556 ) ) ( <= ( + T10 633 )( + T5 355 ) ) )
(or ( <= ( + T6 30 ) T7 ) ( <= ( + T7 95 ) T6 ) )
(or ( <= ( + T6 80 )  ( + T7 95 ) ) ( <= ( + T7 192 )( + T6 30 ) ) )
(or ( <= ( + T6 122 )  ( + T7 192 ) ) ( <= ( + T7 280 )( + T6 80 ) ) )
(or ( <= ( + T6 188 )  ( + T7 280 ) ) ( <= ( + T7 282 )( + T6 122 ) ) )
(or ( <= ( + T6 208 )  ( + T7 282 ) ) ( <= ( + T7 367 )( + T6 188 ) ) )
(or ( <= ( + T6 247 )  ( + T7 367 ) ) ( <= ( + T7 443 )( + T6 208 ) ) )
(or ( <= ( + T6 343 )  ( + T7 443 ) ) ( <= ( + T7 473 )( + T6 247 ) ) )
(or ( <= ( + T6 367 )  ( + T7 473 ) ) ( <= ( + T7 535 )( + T6 343 ) ) )
(or ( <= ( + T6 378 )  ( + T7 535 ) ) ( <= ( + T7 618 )( + T6 367 ) ) )
(or ( <= ( + T6 465 )  ( + T7 618 ) ) ( <= ( + T7 672 )( + T6 378 ) ) )
(or ( <= ( + T6 472 )  ( + T7 672 ) ) ( <= ( + T7 737 )( + T6 465 ) ) )
(or ( <= ( + T6 517 )  ( + T7 737 ) ) ( <= ( + T7 740 )( + T6 472 ) ) )
(or ( <= ( + T6 30 ) T8 ) ( <= ( + T8 8 ) T6 ) )
(or ( <= ( + T6 80 )  ( + T8 8 ) ) ( <= ( + T8 92 )( + T6 30 ) ) )
(or ( <= ( + T6 122 )  ( + T8 92 ) ) ( <= ( + T8 152 )( + T6 80 ) ) )
(or ( <= ( + T6 188 )  ( + T8 152 ) ) ( <= ( + T8 169 )( + T6 122 ) ) )
(or ( <= ( + T6 208 )  ( + T8 169 ) ) ( <= ( + T8 263 )( + T6 188 ) ) )
(or ( <= ( + T6 247 )  ( + T8 263 ) ) ( <= ( + T8 347 )( + T6 208 ) ) )
(or ( <= ( + T6 343 )  ( + T8 347 ) ) ( <= ( + T8 405 )( + T6 247 ) ) )
(or ( <= ( + T6 367 )  ( + T8 405 ) ) ( <= ( + T8 480 )( + T6 343 ) ) )
(or ( <= ( + T6 378 )  ( + T8 480 ) ) ( <= ( + T8 565 )( + T6 367 ) ) )
(or ( <= ( + T6 465 )  ( + T8 565 ) ) ( <= ( + T8 664 )( + T6 378 ) ) )
(or ( <= ( + T6 472 )  ( + T8 664 ) ) ( <= ( + T8 704 )( + T6 465 ) ) )
(or ( <= ( + T6 517 )  ( + T8 704 ) ) ( <= ( + T8 708 )( + T6 472 ) ) )
(or ( <= ( + T6 30 ) T9 ) ( <= ( + T9 90 ) T6 ) )
(or ( <= ( + T6 80 )  ( + T9 90 ) ) ( <= ( + T9 125 )( + T6 30 ) ) )
(or ( <= ( + T6 122 )  ( + T9 125 ) ) ( <= ( + T9 205 )( + T6 80 ) ) )
(or ( <= ( + T6 188 )  ( + T9 205 ) ) ( <= ( + T9 257 )( + T6 122 ) ) )
(or ( <= ( + T6 208 )  ( + T9 257 ) ) ( <= ( + T9 330 )( + T6 188 ) ) )
(or ( <= ( + T6 247 )  ( + T9 330 ) ) ( <= ( + T9 416 )( + T6 208 ) ) )
(or ( <= ( + T6 343 )  ( + T9 416 ) ) ( <= ( + T9 464 )( + T6 247 ) ) )
(or ( <= ( + T6 367 )  ( + T9 464 ) ) ( <= ( + T9 531 )( + T6 343 ) ) )
(or ( <= ( + T6 378 )  ( + T9 531 ) ) ( <= ( + T9 614 )( + T6 367 ) ) )
(or ( <= ( + T6 465 )  ( + T9 614 ) ) ( <= ( + T9 649 )( + T6 378 ) ) )
(or ( <= ( + T6 472 )  ( + T9 649 ) ) ( <= ( + T9 718 )( + T6 465 ) ) )
(or ( <= ( + T6 517 )  ( + T9 718 ) ) ( <= ( + T9 737 )( + T6 472 ) ) )
(or ( <= ( + T6 30 ) T10 ) ( <= ( + T10 11 ) T6 ) )
(or ( <= ( + T6 80 )  ( + T10 11 ) ) ( <= ( + T10 109 )( + T6 30 ) ) )
(or ( <= ( + T6 122 )  ( + T10 109 ) ) ( <= ( + T10 189 )( + T6 80 ) ) )
(or ( <= ( + T6 188 )  ( + T10 189 ) ) ( <= ( + T10 234 )( + T6 122 ) ) )
(or ( <= ( + T6 208 )  ( + T10 234 ) ) ( <= ( + T10 285 )( + T6 188 ) ) )
(or ( <= ( + T6 247 )  ( + T10 285 ) ) ( <= ( + T10 382 )( + T6 208 ) ) )
(or ( <= ( + T6 343 )  ( + T10 382 ) ) ( <= ( + T10 429 )( + T6 247 ) ) )
(or ( <= ( + T6 367 )  ( + T10 429 ) ) ( <= ( + T10 439 )( + T6 343 ) ) )
(or ( <= ( + T6 378 )  ( + T10 439 ) ) ( <= ( + T10 471 )( + T6 367 ) ) )
(or ( <= ( + T6 465 )  ( + T10 471 ) ) ( <= ( + T10 530 )( + T6 378 ) ) )
(or ( <= ( + T6 472 )  ( + T10 530 ) ) ( <= ( + T10 556 )( + T6 465 ) ) )
(or ( <= ( + T6 517 )  ( + T10 556 ) ) ( <= ( + T10 633 )( + T6 472 ) ) )
(or ( <= ( + T7 95 ) T8 ) ( <= ( + T8 8 ) T7 ) )
(or ( <= ( + T7 192 )  ( + T8 8 ) ) ( <= ( + T8 92 )( + T7 95 ) ) )
(or ( <= ( + T7 280 )  ( + T8 92 ) ) ( <= ( + T8 152 )( + T7 192 ) ) )
(or ( <= ( + T7 282 )  ( + T8 152 ) ) ( <= ( + T8 169 )( + T7 280 ) ) )
(or ( <= ( + T7 367 )  ( + T8 169 ) ) ( <= ( + T8 263 )( + T7 282 ) ) )
(or ( <= ( + T7 443 )  ( + T8 263 ) ) ( <= ( + T8 347 )( + T7 367 ) ) )
(or ( <= ( + T7 473 )  ( + T8 347 ) ) ( <= ( + T8 405 )( + T7 443 ) ) )
(or ( <= ( + T7 535 )  ( + T8 405 ) ) ( <= ( + T8 480 )( + T7 473 ) ) )
(or ( <= ( + T7 618 )  ( + T8 480 ) ) ( <= ( + T8 565 )( + T7 535 ) ) )
(or ( <= ( + T7 672 )  ( + T8 565 ) ) ( <= ( + T8 664 )( + T7 618 ) ) )
(or ( <= ( + T7 737 )  ( + T8 664 ) ) ( <= ( + T8 704 )( + T7 672 ) ) )
(or ( <= ( + T7 740 )  ( + T8 704 ) ) ( <= ( + T8 708 )( + T7 737 ) ) )
(or ( <= ( + T7 95 ) T9 ) ( <= ( + T9 90 ) T7 ) )
(or ( <= ( + T7 192 )  ( + T9 90 ) ) ( <= ( + T9 125 )( + T7 95 ) ) )
(or ( <= ( + T7 280 )  ( + T9 125 ) ) ( <= ( + T9 205 )( + T7 192 ) ) )
(or ( <= ( + T7 282 )  ( + T9 205 ) ) ( <= ( + T9 257 )( + T7 280 ) ) )
(or ( <= ( + T7 367 )  ( + T9 257 ) ) ( <= ( + T9 330 )( + T7 282 ) ) )
(or ( <= ( + T7 443 )  ( + T9 330 ) ) ( <= ( + T9 416 )( + T7 367 ) ) )
(or ( <= ( + T7 473 )  ( + T9 416 ) ) ( <= ( + T9 464 )( + T7 443 ) ) )
(or ( <= ( + T7 535 )  ( + T9 464 ) ) ( <= ( + T9 531 )( + T7 473 ) ) )
(or ( <= ( + T7 618 )  ( + T9 531 ) ) ( <= ( + T9 614 )( + T7 535 ) ) )
(or ( <= ( + T7 672 )  ( + T9 614 ) ) ( <= ( + T9 649 )( + T7 618 ) ) )
(or ( <= ( + T7 737 )  ( + T9 649 ) ) ( <= ( + T9 718 )( + T7 672 ) ) )
(or ( <= ( + T7 740 )  ( + T9 718 ) ) ( <= ( + T9 737 )( + T7 737 ) ) )
(or ( <= ( + T7 95 ) T10 ) ( <= ( + T10 11 ) T7 ) )
(or ( <= ( + T7 192 )  ( + T10 11 ) ) ( <= ( + T10 109 )( + T7 95 ) ) )
(or ( <= ( + T7 280 )  ( + T10 109 ) ) ( <= ( + T10 189 )( + T7 192 ) ) )
(or ( <= ( + T7 282 )  ( + T10 189 ) ) ( <= ( + T10 234 )( + T7 280 ) ) )
(or ( <= ( + T7 367 )  ( + T10 234 ) ) ( <= ( + T10 285 )( + T7 282 ) ) )
(or ( <= ( + T7 443 )  ( + T10 285 ) ) ( <= ( + T10 382 )( + T7 367 ) ) )
(or ( <= ( + T7 473 )  ( + T10 382 ) ) ( <= ( + T10 429 )( + T7 443 ) ) )
(or ( <= ( + T7 535 )  ( + T10 429 ) ) ( <= ( + T10 439 )( + T7 473 ) ) )
(or ( <= ( + T7 618 )  ( + T10 439 ) ) ( <= ( + T10 471 )( + T7 535 ) ) )
(or ( <= ( + T7 672 )  ( + T10 471 ) ) ( <= ( + T10 530 )( + T7 618 ) ) )
(or ( <= ( + T7 737 )  ( + T10 530 ) ) ( <= ( + T10 556 )( + T7 672 ) ) )
(or ( <= ( + T7 740 )  ( + T10 556 ) ) ( <= ( + T10 633 )( + T7 737 ) ) )
(or ( <= ( + T8 8 ) T9 ) ( <= ( + T9 90 ) T8 ) )
(or ( <= ( + T8 92 )  ( + T9 90 ) ) ( <= ( + T9 125 )( + T8 8 ) ) )
(or ( <= ( + T8 152 )  ( + T9 125 ) ) ( <= ( + T9 205 )( + T8 92 ) ) )
(or ( <= ( + T8 169 )  ( + T9 205 ) ) ( <= ( + T9 257 )( + T8 152 ) ) )
(or ( <= ( + T8 263 )  ( + T9 257 ) ) ( <= ( + T9 330 )( + T8 169 ) ) )
(or ( <= ( + T8 347 )  ( + T9 330 ) ) ( <= ( + T9 416 )( + T8 263 ) ) )
(or ( <= ( + T8 405 )  ( + T9 416 ) ) ( <= ( + T9 464 )( + T8 347 ) ) )
(or ( <= ( + T8 480 )  ( + T9 464 ) ) ( <= ( + T9 531 )( + T8 405 ) ) )
(or ( <= ( + T8 565 )  ( + T9 531 ) ) ( <= ( + T9 614 )( + T8 480 ) ) )
(or ( <= ( + T8 664 )  ( + T9 614 ) ) ( <= ( + T9 649 )( + T8 565 ) ) )
(or ( <= ( + T8 704 )  ( + T9 649 ) ) ( <= ( + T9 718 )( + T8 664 ) ) )
(or ( <= ( + T8 708 )  ( + T9 718 ) ) ( <= ( + T9 737 )( + T8 704 ) ) )
(or ( <= ( + T8 8 ) T10 ) ( <= ( + T10 11 ) T8 ) )
(or ( <= ( + T8 92 )  ( + T10 11 ) ) ( <= ( + T10 109 )( + T8 8 ) ) )
(or ( <= ( + T8 152 )  ( + T10 109 ) ) ( <= ( + T10 189 )( + T8 92 ) ) )
(or ( <= ( + T8 169 )  ( + T10 189 ) ) ( <= ( + T10 234 )( + T8 152 ) ) )
(or ( <= ( + T8 263 )  ( + T10 234 ) ) ( <= ( + T10 285 )( + T8 169 ) ) )
(or ( <= ( + T8 347 )  ( + T10 285 ) ) ( <= ( + T10 382 )( + T8 263 ) ) )
(or ( <= ( + T8 405 )  ( + T10 382 ) ) ( <= ( + T10 429 )( + T8 347 ) ) )
(or ( <= ( + T8 480 )  ( + T10 429 ) ) ( <= ( + T10 439 )( + T8 405 ) ) )
(or ( <= ( + T8 565 )  ( + T10 439 ) ) ( <= ( + T10 471 )( + T8 480 ) ) )
(or ( <= ( + T8 664 )  ( + T10 471 ) ) ( <= ( + T10 530 )( + T8 565 ) ) )
(or ( <= ( + T8 704 )  ( + T10 530 ) ) ( <= ( + T10 556 )( + T8 664 ) ) )
(or ( <= ( + T8 708 )  ( + T10 556 ) ) ( <= ( + T10 633 )( + T8 704 ) ) )
(or ( <= ( + T9 90 ) T10 ) ( <= ( + T10 11 ) T9 ) )
(or ( <= ( + T9 125 )  ( + T10 11 ) ) ( <= ( + T10 109 )( + T9 90 ) ) )
(or ( <= ( + T9 205 )  ( + T10 109 ) ) ( <= ( + T10 189 )( + T9 125 ) ) )
(or ( <= ( + T9 257 )  ( + T10 189 ) ) ( <= ( + T10 234 )( + T9 205 ) ) )
(or ( <= ( + T9 330 )  ( + T10 234 ) ) ( <= ( + T10 285 )( + T9 257 ) ) )
(or ( <= ( + T9 416 )  ( + T10 285 ) ) ( <= ( + T10 382 )( + T9 330 ) ) )
(or ( <= ( + T9 464 )  ( + T10 382 ) ) ( <= ( + T10 429 )( + T9 416 ) ) )
(or ( <= ( + T9 531 )  ( + T10 429 ) ) ( <= ( + T10 439 )( + T9 464 ) ) )
(or ( <= ( + T9 614 )  ( + T10 439 ) ) ( <= ( + T10 471 )( + T9 531 ) ) )
(or ( <= ( + T9 649 )  ( + T10 471 ) ) ( <= ( + T10 530 )( + T9 614 ) ) )
(or ( <= ( + T9 718 )  ( + T10 530 ) ) ( <= ( + T10 556 )( + T9 649 ) ) )
(or ( <= ( + T9 737 )  ( + T10 556 ) ) ( <= ( + T10 633 )( + T9 718 ) ) )
( <= ( + T1 548 ) Z)
( <= ( + T2 660 ) Z)
( <= ( + T3 607 ) Z)
( <= ( + T4 679 ) Z)
( <= ( + T5 445 ) Z)
( <= ( + T6 517 ) Z)
( <= ( + T7 740 ) Z)
( <= ( + T8 708 ) Z)
( <= ( + T9 737 ) Z)
( <= ( + T10 633 ) Z)
( >= T1 0 )
( >= T2 0 )
( >= T3 0 )
( >= T4 0 )
( >= T5 0 )
( >= T6 0 )
( >= T7 0 )
( >= T8 0 )
( >= T9 0 )
( >= T10 0 )
) )
(minimize Z)
(check-sat)